p cnf 30 86
c Declare 'color' variable
1 2 3 0
-1 -2 0
-1 -3 0
-2 -3 0
4 5 6 0
-4 -5 0
-4 -6 0
-5 -6 0
7 8 9 0
-7 -8 0
-7 -9 0
-8 -9 0
10 11 12 0
-10 -11 0
-10 -12 0
-11 -12 0
13 14 15 0
-13 -14 0
-13 -15 0
-14 -15 0
16 17 18 0
-16 -17 0
-16 -18 0
-17 -18 0
19 20 21 0
-19 -20 0
-19 -21 0
-20 -21 0
22 23 24 0
-22 -23 0
-22 -24 0
-23 -24 0
25 26 27 0
-25 -26 0
-25 -27 0
-26 -27 0
28 29 30 0
-28 -29 0
-28 -30 0
-29 -30 0
c Declare coloring constraints
-1 -7 0
-2 -8 0
-3 -9 0
-7 -13 0
-8 -14 0
-9 -15 0
-4 -13 0
-5 -14 0
-6 -15 0
-4 -10 0
-5 -11 0
-6 -12 0
-1 -10 0
-2 -11 0
-3 -12 0
-1 -16 0
-2 -17 0
-3 -18 0
-4 -19 0
-5 -20 0
-6 -21 0
-7 -22 0
-8 -23 0
-9 -24 0
-10 -25 0
-11 -26 0
-12 -27 0
-13 -28 0
-14 -29 0
-15 -30 0
-16 -19 0
-17 -20 0
-18 -21 0
-19 -22 0
-20 -23 0
-21 -24 0
-22 -25 0
-23 -26 0
-24 -27 0
-25 -28 0
-26 -29 0
-27 -30 0
-16 -28 0
-17 -29 0
-18 -30 0
c Aux constraints
1 0
